NAME: tsp40_30
COMMENT: 40-tsp problem (Padberg/Rinaldi)
TYPE: TSP
DIMENSION: 40
EDGE_WEIGHT_TYPE : EUC_2D
NODE_COORD_SECTION
1 1 29
2 7 18
3 37 24
4 1 33
5 19 4
6 28 35
7 39 9
8 9 25
9 12 36
10 2 27
11 29 38
12 5 30
13 12 31
14 0 17
15 0 34
16 28 29
17 5 30
18 8 19
19 18 31
20 3 13
21 1 27
22 37 21
23 39 7
24 33 22
25 14 6
26 7 25
27 32 22
28 32 26
29 33 17
30 13 24
31 19 2
32 35 17
33 8 7
34 29 13
35 16 28
36 28 27
37 13 9
38 22 28
39 37 23
40 7 21
